language ESSENCE' 1.0

letting jobs = 102
letting horizon = 804
letting resourcesRenew = 2
letting resourcesNonrenew = 2
letting resourceLimits = [31, 31, 449, 494]
letting successors = [[2, 3, 4, 5, 6, 7, 9, 10, 11, 12, 15], [28, 20, 18, 17, 16, 13, 8], [32, 28, 22, 21, 20, 18, 17, 16], [28, 23, 21, 19, 14], [33, 32, 30, 29, 28, 27, 16], [33, 30, 29, 24, 14], [32, 30, 22, 20, 17], [33, 30, 29, 14], [30, 29, 27, 16], [49, 37, 36, 33, 32, 29, 27, 25, 22], [37, 36, 33, 32, 27, 26, 22], [36, 32, 29, 22, 20], [38, 37, 36, 33, 32, 31, 30, 29, 26], [37, 36, 32, 27, 26, 22], [49, 37, 36, 33, 30, 22], [44, 38, 35, 31, 26, 24], [38, 37, 36, 31, 27, 26], [49, 46, 44, 39, 38, 37, 36, 31, 29], [44, 37, 36, 33, 29, 26], [48, 39, 37, 33, 31, 25], [37, 34, 31, 30, 26], [48, 40, 38, 35, 34, 31], [39, 34, 29], [49, 47, 46, 41, 40, 39, 37, 36], [47, 41, 40, 38, 34], [55, 52, 49, 48, 46, 42, 41, 40, 39], [50, 48, 47, 42, 41, 34], [48, 47, 46, 41, 38, 37], [48, 47, 42, 40, 35], [57, 52, 50, 45, 44, 42, 41], [57, 55, 50, 47, 45, 42, 41], [55, 48, 47, 46, 42, 40], [57, 52, 51, 50, 47, 41], [61, 57, 51, 46, 45, 44], [57, 55, 50, 45, 41], [56, 48, 45, 42], [61, 59, 58, 57, 56, 55, 51, 45], [64, 56, 53, 52, 42], [61, 57, 54, 50, 45], [54, 51, 50, 45], [61, 60, 53, 43], [66, 61, 60, 54, 51], [66, 65, 62, 56, 54], [68, 66, 58, 56, 55], [66, 64, 62, 60, 53], [66, 54, 53], [68, 65, 64, 63, 62, 61, 60], [68, 66, 65, 63, 61, 60, 59], [68, 66, 65, 63, 62, 58], [68, 67, 65, 58, 56], [86, 76, 69, 65, 63, 62], [66, 62, 59, 58], [86, 77, 71, 69, 68, 65, 63], [68, 59, 58], [86, 65, 64, 62], [77, 76, 71, 69, 63], [86, 76, 74, 73, 71, 70, 67], [86, 85, 84, 82, 78, 77, 76, 75, 72, 69], [77, 76, 72, 71, 70, 67], [86, 84, 78, 77, 76, 74, 72, 69], [86, 84, 77, 76, 73, 72, 71], [77, 71, 70, 67], [82, 74, 72, 70], [101, 87, 85, 84, 83, 78, 77, 76, 72], [74, 70], [92, 86, 83, 82, 78, 77, 72], [101, 93, 84, 83, 81, 80, 79, 75], [93, 84, 83, 80, 79, 76, 75], [101, 93, 87, 83, 81, 73], [101, 93, 92, 90, 84, 83, 80, 79, 78], [101, 92, 87, 85, 82, 79, 78], [93, 90, 81, 80, 79], [99, 92, 88, 80, 79], [75], [98, 92, 89, 88, 87], [100, 99, 96, 92, 91, 90, 89], [100, 99, 98, 93, 90, 88], [100, 99, 98, 97, 96, 91, 89], [100, 98, 97, 96, 95, 89], [100, 97, 96, 91, 89], [100, 99, 89, 88], [96, 95, 90, 89], [97, 91, 88], [98, 89, 88], [91, 89, 88], [98, 97, 96, 95, 94], [99, 95, 90], [96, 95, 94], [94], [97], [95], [94], [94], [102], [102], [102], [102], [102], [102], [102], [102], []]
letting durations = [[0], [6, 9, 10], [2, 3, 6], [2, 3, 10], [3, 6, 7], [2, 9, 10], [5, 6, 8], [4, 5, 7], [2, 5, 6], [2, 3, 10], [1, 2, 5], [3, 4, 5], [1, 6, 10], [2, 4, 7], [2, 4, 8], [2, 9, 10], [2, 3, 7], [3, 8, 9], [1, 5, 6], [1, 8, 9], [3, 5, 6], [1, 6, 7], [3, 8, 10], [3, 8, 10], [1, 8, 9], [2, 5, 6], [2, 4, 9], [5, 6, 7], [3, 6, 8], [1, 2, 3], [5, 6, 10], [1, 3, 10], [4, 5, 7], [1, 6, 8], [1, 4, 6], [2, 5, 10], [1, 3, 9], [1, 2, 5], [7, 8, 9], [2, 4, 8], [1, 8, 10], [1, 2, 6], [1, 2, 8], [3, 7, 9], [1, 6, 7], [1, 3, 10], [3, 6, 10], [5, 8, 9], [1, 2, 4], [2, 7, 8], [3, 4, 8], [3, 4, 6], [4, 7, 10], [4, 7, 9], [2, 5, 7], [1, 2, 4], [1, 5, 7], [5, 8, 9], [2, 3, 6], [2, 5, 7], [6, 8, 9], [1, 5, 8], [3, 6, 10], [4, 6, 7], [1, 2, 5], [2, 5, 10], [1, 7, 9], [4, 5, 8], [7, 9, 10], [1, 6, 10], [5, 7, 9], [7, 9, 10], [1, 6, 8], [1, 5, 6], [1, 5, 7], [5, 6, 7], [1, 3, 5], [5, 6, 7], [6, 9, 10], [1, 2, 8], [1, 6, 9], [6, 8, 10], [2, 5, 7], [1, 4, 8], [6, 8, 10], [1, 4, 9], [6, 8, 9], [7, 9, 10], [3, 4, 6], [2, 6, 10], [2, 8, 9], [5, 9, 10], [1, 2, 7], [1, 7, 8], [3, 5, 6], [2, 4, 8], [1, 7, 9], [5, 6, 9], [5, 9, 10], [2, 6, 7], [6, 7, 9], [0]]
letting resourceUsage = [[[0, 0, 0, 0]], [[4, 5, 6, 7], [3, 4, 3, 4], [3, 4, 3, 3]], [[2, 2, 8, 7], [1, 2, 4, 6], [1, 2, 2, 6]], [[5, 4, 5, 3], [4, 2, 5, 2], [3, 2, 5, 1]], [[5, 5, 5, 7], [4, 5, 5, 7], [3, 5, 5, 6]], [[4, 3, 8, 6], [2, 3, 7, 5], [2, 2, 6, 4]], [[2, 2, 5, 9], [2, 1, 4, 9], [1, 1, 4, 8]], [[4, 4, 8, 4], [2, 4, 7, 4], [1, 4, 5, 4]], [[4, 4, 5, 8], [3, 4, 5, 5], [1, 4, 4, 4]], [[3, 3, 7, 5], [2, 1, 5, 5], [2, 1, 4, 5]], [[3, 5, 8, 9], [2, 3, 7, 9], [2, 2, 4, 7]], [[3, 2, 5, 6], [1, 2, 5, 6], [1, 2, 3, 6]], [[4, 5, 10, 5], [3, 4, 8, 4], [3, 4, 7, 4]], [[2, 5, 7, 9], [2, 5, 5, 5], [2, 5, 4, 5]], [[5, 5, 5, 8], [3, 3, 5, 7], [2, 3, 4, 5]], [[5, 5, 10, 8], [4, 3, 5, 6], [4, 3, 3, 5]], [[4, 4, 9, 3], [3, 4, 6, 2], [3, 3, 5, 2]], [[5, 4, 6, 5], [5, 2, 3, 4], [5, 1, 2, 2]], [[3, 2, 8, 3], [2, 2, 5, 2], [1, 2, 5, 2]], [[5, 3, 5, 7], [3, 2, 4, 6], [3, 2, 3, 5]], [[4, 4, 7, 7], [3, 4, 7, 6], [2, 4, 7, 5]], [[1, 4, 2, 7], [1, 4, 2, 5], [1, 4, 2, 1]], [[3, 3, 6, 7], [3, 3, 5, 5], [2, 2, 3, 4]], [[4, 1, 5, 9], [2, 1, 3, 8], [2, 1, 2, 7]], [[4, 4, 8, 9], [3, 2, 7, 9], [1, 2, 5, 9]], [[3, 5, 2, 9], [1, 5, 2, 5], [1, 5, 2, 4]], [[3, 4, 5, 4], [2, 4, 5, 3], [2, 4, 3, 3]], [[4, 2, 9, 4], [3, 2, 5, 4], [2, 2, 5, 4]], [[4, 2, 5, 6], [4, 1, 5, 5], [3, 1, 2, 3]], [[5, 3, 8, 8], [4, 2, 3, 7], [3, 2, 3, 4]], [[3, 5, 5, 6], [1, 4, 5, 4], [1, 3, 4, 3]], [[4, 4, 6, 9], [2, 2, 4, 4], [2, 2, 3, 1]], [[4, 3, 3, 9], [4, 3, 2, 6], [4, 2, 1, 4]], [[5, 5, 9, 8], [3, 3, 7, 5], [3, 3, 3, 5]], [[3, 2, 6, 10], [3, 1, 4, 9], [1, 1, 2, 8]], [[4, 4, 8, 8], [4, 4, 5, 6], [3, 3, 4, 5]], [[5, 4, 2, 7], [4, 3, 1, 5], [4, 2, 1, 5]], [[3, 2, 9, 6], [3, 2, 9, 4], [3, 2, 9, 3]], [[5, 1, 9, 7], [3, 1, 5, 5], [3, 1, 5, 1]], [[4, 4, 1, 10], [3, 2, 1, 9], [3, 2, 1, 8]], [[3, 4, 3, 9], [2, 3, 3, 6], [2, 3, 1, 1]], [[2, 3, 8, 8], [2, 2, 8, 7], [2, 2, 8, 6]], [[1, 3, 7, 8], [1, 3, 7, 6], [1, 3, 2, 3]], [[1, 5, 6, 2], [1, 4, 5, 2], [1, 3, 5, 2]], [[3, 2, 6, 6], [3, 2, 5, 6], [3, 1, 4, 6]], [[2, 2, 5, 9], [1, 2, 3, 7], [1, 2, 3, 6]], [[3, 2, 7, 9], [2, 2, 7, 9], [2, 2, 4, 9]], [[4, 2, 9, 6], [3, 1, 8, 5], [3, 1, 8, 4]], [[4, 5, 3, 7], [3, 4, 2, 3], [3, 4, 2, 2]], [[3, 1, 8, 6], [2, 1, 7, 4], [1, 1, 7, 4]], [[1, 4, 10, 5], [1, 3, 8, 2], [1, 3, 7, 2]], [[3, 4, 5, 3], [2, 2, 5, 3], [1, 2, 5, 3]], [[4, 5, 5, 5], [4, 4, 4, 5], [4, 3, 3, 4]], [[5, 3, 6, 4], [4, 1, 6, 4], [4, 1, 6, 2]], [[5, 3, 9, 2], [3, 3, 8, 2], [3, 3, 7, 2]], [[1, 3, 2, 6], [1, 2, 2, 6], [1, 1, 1, 6]], [[4, 1, 6, 9], [3, 1, 3, 5], [3, 1, 1, 2]], [[2, 4, 6, 7], [1, 3, 4, 5], [1, 1, 4, 5]], [[5, 3, 5, 9], [4, 3, 3, 5], [4, 3, 3, 3]], [[2, 4, 6, 7], [1, 3, 4, 7], [1, 2, 2, 6]], [[2, 3, 3, 8], [2, 2, 1, 5], [2, 1, 1, 3]], [[5, 2, 6, 3], [4, 1, 5, 3], [4, 1, 5, 2]], [[3, 1, 7, 4], [1, 1, 4, 3], [1, 1, 4, 2]], [[4, 5, 7, 2], [4, 3, 7, 2], [3, 3, 7, 2]], [[4, 1, 4, 8], [3, 1, 4, 6], [3, 1, 4, 5]], [[4, 4, 9, 10], [3, 3, 8, 6], [3, 3, 8, 5]], [[5, 4, 3, 8], [4, 4, 1, 8], [4, 4, 1, 7]], [[3, 3, 5, 7], [1, 2, 4, 5], [1, 2, 4, 4]], [[4, 4, 6, 10], [3, 3, 5, 8], [1, 2, 5, 6]], [[4, 1, 8, 6], [4, 1, 6, 4], [4, 1, 6, 3]], [[4, 4, 8, 9], [4, 2, 5, 8], [4, 2, 3, 7]], [[2, 4, 8, 10], [2, 4, 8, 7], [1, 4, 7, 6]], [[2, 3, 8, 5], [2, 2, 4, 3], [1, 2, 4, 3]], [[3, 3, 8, 7], [3, 3, 7, 6], [3, 3, 6, 6]], [[3, 3, 9, 5], [2, 2, 6, 4], [2, 2, 4, 3]], [[2, 3, 2, 6], [2, 2, 2, 3], [2, 2, 2, 2]], [[5, 1, 5, 6], [3, 1, 3, 6], [3, 1, 2, 4]], [[4, 4, 9, 7], [2, 4, 7, 6], [2, 4, 5, 6]], [[4, 4, 8, 5], [4, 2, 5, 5], [4, 2, 4, 3]], [[4, 3, 7, 5], [3, 3, 5, 5], [3, 1, 5, 5]], [[2, 2, 9, 6], [1, 2, 8, 5], [1, 2, 7, 5]], [[5, 2, 5, 7], [5, 1, 4, 6], [5, 1, 3, 6]], [[4, 4, 1, 9], [4, 3, 1, 9], [2, 2, 1, 9]], [[5, 5, 5, 6], [3, 2, 4, 6], [3, 1, 4, 5]], [[4, 2, 2, 4], [4, 2, 2, 3], [3, 1, 1, 2]], [[5, 4, 8, 7], [4, 3, 5, 6], [2, 2, 5, 4]], [[2, 3, 6, 9], [1, 3, 6, 10], [1, 3, 6, 9]], [[4, 3, 8, 8], [4, 2, 7, 8], [4, 2, 5, 8]], [[2, 5, 4, 8], [1, 3, 3, 5], [1, 3, 3, 4]], [[4, 2, 9, 6], [4, 2, 7, 6], [3, 1, 6, 6]], [[4, 4, 5, 6], [3, 3, 4, 3], [2, 2, 2, 2]], [[4, 5, 8, 7], [4, 3, 7, 6], [4, 2, 6, 2]], [[5, 4, 3, 9], [4, 4, 2, 6], [3, 4, 2, 3]], [[2, 1, 5, 7], [2, 1, 3, 5], [2, 1, 2, 3]], [[3, 5, 8, 7], [3, 4, 6, 5], [3, 4, 2, 1]], [[4, 2, 3, 7], [4, 2, 2, 6], [4, 2, 2, 5]], [[5, 3, 8, 10], [3, 3, 8, 5], [2, 2, 6, 4]], [[4, 3, 6, 9], [3, 3, 5, 8], [3, 3, 4, 8]], [[5, 3, 10, 4], [4, 3, 9, 2], [3, 3, 9, 2]], [[4, 4, 7, 8], [4, 4, 3, 5], [3, 3, 1, 4]], [[3, 4, 1, 6], [2, 4, 1, 5], [2, 4, 1, 3]], [[0, 0, 0, 0]]]
